
List of user-set options:

                                    Name   Value                used
                           linear_solver = ma57                  yes
                  ma57_automatic_scaling = yes                   yes
                                max_iter = 200                   yes
                             mu_strategy = adaptive              yes
                             output_file = SLIP_constV3_fixedTIPOPTinfo.txt  yes
                             print_level = 5                     yes
                      print_user_options = yes                   yes
                                     tol = 1e-010                yes
This is Ipopt version 3.11.0, running with linear solver ma57.

Number of nonzeros in equality constraint Jacobian...:   772135
Number of nonzeros in inequality constraint Jacobian.:       26
Number of nonzeros in Lagrangian Hessian.............:   178250

Total number of variables............................:    56082
                     variables with only lower bounds:        0
                variables with lower and upper bounds:    56082
                     variables with only upper bounds:        0
Total number of equality constraints.................:    52082
Total number of inequality constraints...............:       17
        inequality constraints with only lower bounds:        0
   inequality constraints with lower and upper bounds:       17
        inequality constraints with only upper bounds:        0

iter    objective    inf_pr   inf_du lg(mu)  ||d||  lg(rg) alpha_du alpha_pr  ls
   0 0.0000000e+000 2.52e+001 3.02e-003   0.0 0.00e+000    -  0.00e+000 0.00e+000   0
   1 -1.9926338e-001 1.91e+001 8.80e+002  -0.2 1.36e+000    -  7.10e-001 2.44e-001f  1
   2 -2.2222778e-001 1.73e+001 8.31e+002  -0.5 2.23e+000    -  2.43e-001 9.31e-002h  1
   3 -2.7341201e-001 1.19e+001 1.17e+003  -0.2 2.26e+000    -  4.29e-001 3.11e-001h  1
   4 -2.6211256e-001 5.40e+000 9.03e+002  -0.3 7.62e-001    -  9.90e-001 5.47e-001h  1
   5 -8.6018841e-002 6.37e-001 1.32e+003  -0.2 7.82e-001    -  4.31e-001 8.82e-001h  1
   6 -8.3871149e-002 6.22e-001 1.62e+003  -0.3 5.44e-001    -  8.84e-001 2.44e-002h  1
   7 -8.0916048e-002 6.00e-001 2.74e+004   0.8 2.56e+001    -  1.00e+000 3.41e-002f  1
   8 -6.4771771e-002 4.82e-001 1.08e+005   1.4 1.04e+000    -  9.87e-001 1.97e-001h  1
   9 -5.9641150e-002 4.45e-001 8.11e+005   2.2 1.04e+001    -  1.00e+000 7.61e-002h  1
iter    objective    inf_pr   inf_du lg(mu)  ||d||  lg(rg) alpha_du alpha_pr  ls
  10 -2.6416357e-004 4.45e-003 4.20e+005   2.5 2.99e-001    -  1.00e+000 9.90e-001h  1
  11 2.1347310e-003 4.40e-005 1.09e+005   1.3 2.65e-002    -  1.00e+000 9.90e-001h  1
  12 2.0675281e-003 2.20e-005 2.46e+007   0.2 1.05e-002    -  1.00e+000 5.00e-001f  2
  13 2.0818413e-003 1.43e-010 2.05e+001  -1.5 9.06e-005   4.0 1.00e+000 1.00e+000h  1
  14 2.0806608e-003 1.28e-010 3.13e+005  -7.5 6.84e-005    -  9.90e-001 1.00e+000h  1
  15 6.3293670e-004 1.84e-004 4.50e+004  -3.6 8.92e-002    -  8.44e-001 1.00e+000f  1
  16 1.1163691e-003 1.08e-007 3.57e-003  -5.1 2.06e-003    -  1.00e+000 1.00e+000h  1
  17 9.6540316e-004 1.10e-005 1.00e-003  -6.3 3.41e-002    -  1.00e+000 1.00e+000h  1
  18 6.9192451e-004 1.07e-004 3.62e-004  -6.8 3.85e-001    -  1.00e+000 1.00e+000h  1
  19 6.3207788e-004 3.08e-005 4.69e-005  -6.9 2.10e-001    -  1.00e+000 1.00e+000h  1
iter    objective    inf_pr   inf_du lg(mu)  ||d||  lg(rg) alpha_du alpha_pr  ls
  20 5.8037948e-004 8.99e-006 2.43e-002  -7.4 1.85e-001    -  9.98e-001 1.00e+000h  1
  21 5.3683139e-004 4.57e-005 1.69e-005  -7.7 2.27e-001    -  1.00e+000 1.00e+000h  1
  22 5.1978015e-004 4.81e-005 4.97e-006  -7.8 7.36e-001    -  1.00e+000 1.00e+000h  1
  23 5.0310937e-004 8.47e-005 8.75e-006  -8.1 3.72e-001    -  1.00e+000 1.00e+000h  1
  24 5.1799570e-004 1.01e-004 8.97e-006  -7.9 2.45e-001    -  1.00e+000 1.00e+000h  1
  25 5.0945449e-004 5.83e-005 3.41e-006  -8.0 2.83e-001    -  1.00e+000 1.00e+000h  1
  26 4.9856457e-004 9.48e-005 2.00e-003  -8.1 3.21e-001    -  9.94e-001 1.00e+000h  1
  27 4.9410246e-004 8.91e-005 1.70e-006  -8.1 5.91e-001    -  1.00e+000 1.00e+000h  1
  28 4.8774599e-004 6.79e-005 1.17e-003  -8.2 4.91e-001    -  9.91e-001 1.00e+000h  1
  29 4.8427636e-004 2.73e-005 9.05e-007  -8.3 4.50e-001    -  1.00e+000 1.00e+000h  1
iter    objective    inf_pr   inf_du lg(mu)  ||d||  lg(rg) alpha_du alpha_pr  ls
  30 4.7825295e-004 6.76e-005 2.24e-006  -8.4 3.81e-001    -  1.00e+000 1.00e+000h  1
  31 4.7274522e-004 4.89e-005 1.86e-003  -8.5 4.84e-001    -  9.83e-001 1.00e+000h  1
  32 4.7040357e-004 6.72e-006 4.61e-007  -8.6 5.56e-001    -  1.00e+000 1.00e+000h  1
  33 4.6816315e-004 6.52e-006 1.07e-003  -8.7 3.02e-001    -  9.81e-001 1.00e+000h  1
  34 4.6555096e-004 8.81e-006 6.79e-007  -8.8 4.96e-001    -  1.00e+000 1.00e+000h  1
  35 4.6506881e-004 3.18e-006 1.29e-007  -8.9 4.99e-001    -  1.00e+000 1.00e+000h  1
  36 4.6354836e-004 5.11e-006 3.53e-007  -9.0 4.03e-001    -  1.00e+000 1.00e+000h  1
  37 4.6320869e-004 2.15e-006 9.50e-008  -9.0 4.79e-001    -  1.00e+000 1.00e+000h  1
  38 4.6232223e-004 3.83e-006 1.15e-003  -9.1 4.32e-001    -  9.25e-001 1.00e+000h  1
  39 4.6199730e-004 1.66e-006 3.51e-006  -9.1 4.29e-001    -  1.00e+000 9.99e-001h  1
iter    objective    inf_pr   inf_du lg(mu)  ||d||  lg(rg) alpha_du alpha_pr  ls
  40 4.6124961e-004 2.53e-006 2.75e-007  -9.2 3.06e-001    -  1.00e+000 1.00e+000h  1
  41 4.6096921e-004 1.97e-006 8.77e-008  -9.2 5.57e-001    -  1.00e+000 1.00e+000h  1
  42 4.6046621e-004 2.67e-006 2.04e-007  -9.2 4.51e-001    -  1.00e+000 1.00e+000h  1
  43 4.6028619e-004 1.07e-006 4.78e-008  -9.3 4.67e-001    -  1.00e+000 1.00e+000h  1
  44 4.5983605e-004 2.41e-006 3.83e-004  -9.3 4.39e-001    -  9.38e-001 1.00e+000h  1
  45 4.5956158e-004 1.80e-006 1.23e-007  -9.3 5.11e-001    -  1.00e+000 1.00e+000h  1
  46 4.5917293e-004 1.66e-006 2.42e-007  -9.4 3.36e-001    -  1.00e+000 1.00e+000h  1
  47 4.5884176e-004 2.81e-006 2.62e-007  -9.4 6.40e-001    -  1.00e+000 1.00e+000h  1
  48 4.5871422e-004 5.67e-007 4.44e-008  -9.5 3.36e-001    -  1.00e+000 1.00e+000h  1
  49 4.5845021e-004 1.25e-006 2.03e-007  -9.5 3.56e-001    -  1.00e+000 1.00e+000h  1
iter    objective    inf_pr   inf_du lg(mu)  ||d||  lg(rg) alpha_du alpha_pr  ls
  50 4.5826693e-004 1.04e-006 1.17e-007  -9.5 4.22e-001    -  1.00e+000 1.00e+000h  1
  51 4.5802112e-004 7.75e-007 2.35e-007  -9.6 2.32e-001    -  1.00e+000 1.00e+000h  1
  52 4.5785993e-004 1.14e-006 1.34e-007  -9.6 5.12e-001    -  1.00e+000 1.00e+000h  1
  53 4.5772610e-004 5.70e-007 9.07e-008  -9.6 3.10e-001    -  1.00e+000 1.00e+000h  1
  54 4.5755162e-004 9.06e-007 1.91e-007  -9.7 3.72e-001    -  1.00e+000 1.00e+000h  1
  55 4.5735950e-004 1.27e-006 3.40e-005  -9.7 4.75e-001    -  9.85e-001 1.00e+000h  1
  56 4.5717598e-004 1.09e-006 3.03e-007  -9.8 4.18e-001    -  1.00e+000 1.00e+000h  1
  57 4.5705819e-004 6.28e-007 1.65e-007  -9.8 3.70e-001    -  1.00e+000 1.00e+000h  1
  58 4.5695100e-004 5.08e-007 1.44e-007  -9.8 3.28e-001    -  1.00e+000 1.00e+000h  1
  59 4.5682233e-004 6.91e-007 2.48e-007  -9.9 3.68e-001    -  1.00e+000 1.00e+000h  1
iter    objective    inf_pr   inf_du lg(mu)  ||d||  lg(rg) alpha_du alpha_pr  ls
  60 4.5676359e-004 1.44e-007 5.92e-008  -9.9 1.69e-001    -  1.00e+000 1.00e+000h  1
  61 4.5653842e-004 2.36e-006 9.86e-007 -10.0 7.10e-001    -  1.00e+000 1.00e+000h  1
  62 4.5653981e-004 8.02e-009 4.15e-009 -10.0 2.97e-001    -  1.00e+000 1.00e+000h  1
  63 4.5637145e-004 7.28e-007 4.35e-005 -10.1 2.90e-001    -  9.76e-001 1.00e+000h  1
  64 4.5622959e-004 1.08e-006 9.24e-007 -10.1 5.02e-001    -  1.00e+000 1.00e+000h  1
  65 4.5615329e-004 1.69e-007 4.12e-007 -10.2 1.44e-001    -  1.00e+000 1.00e+000h  1
  66 4.5613443e-004 2.42e-008 3.28e-008 -10.2 8.66e-002    -  1.00e+000 1.00e+000h  1
  67 4.5595911e-004 1.59e-006 1.91e-005 -10.4 5.86e-001    -  9.89e-001 1.00e+000h  1
  68 4.5589427e-004 1.52e-007 9.01e-007 -10.4 1.53e-001    -  1.00e+000 1.00e+000h  1
  69 4.5585644e-004 6.84e-008 4.45e-007 -10.5 1.12e-001    -  1.00e+000 1.00e+000h  1
iter    objective    inf_pr   inf_du lg(mu)  ||d||  lg(rg) alpha_du alpha_pr  ls
  70 4.5584361e-004 1.14e-008 5.34e-008 -10.5 5.91e-002    -  1.00e+000 1.00e+000h  1
  71 4.5577043e-004 3.56e-007 7.84e-004 -10.8 6.26e-001    -  1.00e+000 4.80e-001h  2
  72 4.5583039e-004 2.37e-007 1.20e-006 -10.5 2.65e-001    -  1.00e+000 1.00e+000h  1
  73 4.5578090e-004 1.29e-007 8.50e-007 -10.6 1.77e-001    -  1.00e+000 1.00e+000h  1
  74 4.5572269e-004 3.04e-007 5.65e-004 -10.8 5.13e-001    -  1.00e+000 5.00e-001h  2
  75 4.5565046e-004 3.37e-007 6.99e-006 -10.9 3.05e-001    -  9.82e-001 1.00e+000h  1
  76 4.5562810e-004 4.03e-008 1.89e-006 -10.9 9.77e-002    -  1.00e+000 1.00e+000h  1
  77 4.5561213e-004 8.97e-009 5.79e-007 -11.0 8.67e-002    -  1.00e+000 1.00e+000h  1
  78 4.5561269e-004 5.55e-011 2.77e-008 -11.0 2.11e-002    -  1.00e+000 1.00e+000h  1
  79 4.5561269e-004 6.74e-012 4.45e-012 -11.0 7.45e-003    -  1.00e+000 1.00e+000h  1

Number of Iterations....: 79

                                   (scaled)                 (unscaled)
Objective...............:  4.5561269282642090e-004   4.5561269282642090e-004
Dual infeasibility......:  4.4464147173409979e-012   4.4464147173409979e-012
Constraint violation....:  6.7364581794737699e-012   6.7364581794737699e-012
Complementarity.........:  1.0077414807052777e-011   1.0077414807052777e-011
Overall NLP error.......:  1.0077414807052777e-011   1.0077414807052777e-011


Number of objective function evaluations             = 91
Number of objective gradient evaluations             = 80
Number of equality constraint evaluations            = 91
Number of inequality constraint evaluations          = 91
Number of equality constraint Jacobian evaluations   = 80
Number of inequality constraint Jacobian evaluations = 80
Number of Lagrangian Hessian evaluations             = 79
Total CPU secs in IPOPT (w/o function evaluations)   =     27.322
Total CPU secs in NLP function evaluations           =    134.404

EXIT: Optimal Solution Found.
